
Gurobi 13.0.0 (linux64) logging started Thu Jan 15 02:41:44 2026

Set parameter LogFile to value "../experiments/network-n_40_s_2_rp_0-app_set-id_31_15_apps/submip_40_epr1_model_gurobi.log"
Set parameter TimeLimit to value 8.6608202136999171e+02
Gurobi Optimizer version 13.0.0 build v13.0.0rc1 (linux64 - "Ubuntu 24.04.3 LTS")

CPU model: Intel(R) Core(TM) Ultra 7 165H, instruction set [SSE2|AVX|AVX2]
Thread count: 22 physical cores, 22 logical processors, using up to 22 threads

Non-default parameters:
TimeLimit  8.6608202136999171e+02
LogToConsole  0

Academic license 2539022 - for non-commercial use only - registered to al___@studenti.unimi.it
Optimize a model with 16703 rows, 3920 columns and 38753 nonzeros (Min)
Model fingerprint: 0x45f21fc7
Model has 3920 linear objective coefficients
Model has 126 quadratic constraints
Variable types: 0 continuous, 3920 integer (3920 binary)
Coefficient statistics:
  Matrix range     [1e+00, 9e+02]
  QMatrix range    [5e+01, 2e+02]
  Objective range  [1e+01, 2e+02]
  Bounds range     [1e+00, 1e+00]
  RHS range        [1e+00, 1e+09]
  QRHS range       [1e+02, 6e+02]
Presolve removed 16270 rows and 3188 columns
Presolve time: 0.05s
Presolved: 4447 rows, 4628 columns, 27498 nonzeros
Variable types: 0 continuous, 4628 integer (4628 binary)

Root relaxation: objective 3.880331e+03, 1241 iterations, 0.05 seconds (0.09 work units)

    Nodes    |    Current Node    |     Objective Bounds      |     Work
 Expl Unexpl |  Obj  Depth IntInf | Incumbent    BestBd   Gap | It/Node Time

     0     0 3880.33120    0  151          - 3880.33120      -     -    0s
     0     0 4400.13462    0  172          - 4400.13462      -     -    0s
     0     0 4512.85585    0  171          - 4512.85585      -     -    0s
     0     0 4515.55003    0  172          - 4515.55003      -     -    0s

Cutting planes:
  Gomory: 3
  Lift-and-project: 17
  Cover: 32
  Implied bound: 3
  Clique: 23
  MIR: 30
  Knapsack: 8
  StrongCG: 15
  GUB cover: 7
  Zero half: 41
  RLT: 148
  Relax-and-lift: 16
  BQP: 52

Explored 1 nodes (3016 simplex iterations) in 1.18 seconds (0.91 work units)
Thread count was 22 (of 22 available processors)

Solution count 0

Model is infeasible
Best objective -, best bound -, gap -

User-callback calls 954, time in user-callback 0.00 sec
